(set-logic QF_LRA)
(declare-fun X0 () Real )
(declare-fun Y0 () Real )
(declare-fun X1 () Real )
(declare-fun Y1 () Real )
(declare-fun X2 () Real )
(declare-fun Y2 () Real )
(declare-fun X3 () Real )
(declare-fun Y3 () Real )
(declare-fun X4 () Real )
(declare-fun Y4 () Real )
(declare-fun X5 () Real )
(declare-fun Y5 () Real )
(declare-fun X6 () Real )
(declare-fun Y6 () Real )
(declare-fun X7 () Real )
(declare-fun Y7 () Real )
(declare-fun X8 () Real )
(declare-fun Y8 () Real )
(declare-fun X9 () Real )
(declare-fun Y9 () Real )
(declare-fun X10 () Real )
(declare-fun Y10 () Real )
(declare-fun X11 () Real )
(declare-fun Y11 () Real )
(declare-fun X12 () Real )
(declare-fun Y12 () Real )
(declare-fun X13 () Real )
(declare-fun Y13 () Real )
(declare-fun X14 () Real )
(declare-fun Y14 () Real )
(declare-fun X15 () Real )
(declare-fun Y15 () Real )
(declare-fun X16 () Real )
(declare-fun Y16 () Real )
(declare-fun X17 () Real )
(declare-fun Y17 () Real )
(declare-fun Z () Real )
(assert ( and  
( or ( <= ( + X0 66 ) X1 )  ( <= ( + X1 90 ) X0 )  ( <= ( + Y0 45 ) Y1 )  ( <= ( + Y1 44 ) Y0 )  )
( or ( <= ( + X0 66 ) X2 )  ( <= ( + X2 73 ) X0 )  ( <= ( + Y0 45 ) Y2 )  ( <= ( + Y2 93 ) Y0 )  )
( or ( <= ( + X0 66 ) X3 )  ( <= ( + X3 64 ) X0 )  ( <= ( + Y0 45 ) Y3 )  ( <= ( + Y3 76 ) Y0 )  )
( or ( <= ( + X0 66 ) X4 )  ( <= ( + X4 68 ) X0 )  ( <= ( + Y0 45 ) Y4 )  ( <= ( + Y4 79 ) Y0 )  )
( or ( <= ( + X0 66 ) X5 )  ( <= ( + X5 21 ) X0 )  ( <= ( + Y0 45 ) Y5 )  ( <= ( + Y5 21 ) Y0 )  )
( or ( <= ( + X0 66 ) X6 )  ( <= ( + X6 11 ) X0 )  ( <= ( + Y0 45 ) Y6 )  ( <= ( + Y6 96 ) Y0 )  )
( or ( <= ( + X0 66 ) X7 )  ( <= ( + X7 76 ) X0 )  ( <= ( + Y0 45 ) Y7 )  ( <= ( + Y7 98 ) Y0 )  )
( or ( <= ( + X0 66 ) X8 )  ( <= ( + X8 16 ) X0 )  ( <= ( + Y0 45 ) Y8 )  ( <= ( + Y8 77 ) Y0 )  )
( or ( <= ( + X0 66 ) X9 )  ( <= ( + X9 71 ) X0 )  ( <= ( + Y0 45 ) Y9 )  ( <= ( + Y9 75 ) Y0 )  )
( or ( <= ( + X0 66 ) X10 )  ( <= ( + X10 82 ) X0 )  ( <= ( + Y0 45 ) Y10 )  ( <= ( + Y10 30 ) Y0 )  )
( or ( <= ( + X0 66 ) X11 )  ( <= ( + X11 54 ) X0 )  ( <= ( + Y0 45 ) Y11 )  ( <= ( + Y11 19 ) Y0 )  )
( or ( <= ( + X0 66 ) X12 )  ( <= ( + X12 41 ) X0 )  ( <= ( + Y0 45 ) Y12 )  ( <= ( + Y12 16 ) Y0 )  )
( or ( <= ( + X0 66 ) X13 )  ( <= ( + X13 1 ) X0 )  ( <= ( + Y0 45 ) Y13 )  ( <= ( + Y13 47 ) Y0 )  )
( or ( <= ( + X0 66 ) X14 )  ( <= ( + X14 67 ) X0 )  ( <= ( + Y0 45 ) Y14 )  ( <= ( + Y14 8 ) Y0 )  )
( or ( <= ( + X0 66 ) X15 )  ( <= ( + X15 24 ) X0 )  ( <= ( + Y0 45 ) Y15 )  ( <= ( + Y15 89 ) Y0 )  )
( or ( <= ( + X0 66 ) X16 )  ( <= ( + X16 53 ) X0 )  ( <= ( + Y0 45 ) Y16 )  ( <= ( + Y16 11 ) Y0 )  )
( or ( <= ( + X0 66 ) X17 )  ( <= ( + X17 83 ) X0 )  ( <= ( + Y0 45 ) Y17 )  ( <= ( + Y17 28 ) Y0 )  )
( or ( <= ( + X1 90 ) X2 )  ( <= ( + X2 73 ) X1 )  ( <= ( + Y1 44 ) Y2 )  ( <= ( + Y2 93 ) Y1 )  )
( or ( <= ( + X1 90 ) X3 )  ( <= ( + X3 64 ) X1 )  ( <= ( + Y1 44 ) Y3 )  ( <= ( + Y3 76 ) Y1 )  )
( or ( <= ( + X1 90 ) X4 )  ( <= ( + X4 68 ) X1 )  ( <= ( + Y1 44 ) Y4 )  ( <= ( + Y4 79 ) Y1 )  )
( or ( <= ( + X1 90 ) X5 )  ( <= ( + X5 21 ) X1 )  ( <= ( + Y1 44 ) Y5 )  ( <= ( + Y5 21 ) Y1 )  )
( or ( <= ( + X1 90 ) X6 )  ( <= ( + X6 11 ) X1 )  ( <= ( + Y1 44 ) Y6 )  ( <= ( + Y6 96 ) Y1 )  )
( or ( <= ( + X1 90 ) X7 )  ( <= ( + X7 76 ) X1 )  ( <= ( + Y1 44 ) Y7 )  ( <= ( + Y7 98 ) Y1 )  )
( or ( <= ( + X1 90 ) X8 )  ( <= ( + X8 16 ) X1 )  ( <= ( + Y1 44 ) Y8 )  ( <= ( + Y8 77 ) Y1 )  )
( or ( <= ( + X1 90 ) X9 )  ( <= ( + X9 71 ) X1 )  ( <= ( + Y1 44 ) Y9 )  ( <= ( + Y9 75 ) Y1 )  )
( or ( <= ( + X1 90 ) X10 )  ( <= ( + X10 82 ) X1 )  ( <= ( + Y1 44 ) Y10 )  ( <= ( + Y10 30 ) Y1 )  )
( or ( <= ( + X1 90 ) X11 )  ( <= ( + X11 54 ) X1 )  ( <= ( + Y1 44 ) Y11 )  ( <= ( + Y11 19 ) Y1 )  )
( or ( <= ( + X1 90 ) X12 )  ( <= ( + X12 41 ) X1 )  ( <= ( + Y1 44 ) Y12 )  ( <= ( + Y12 16 ) Y1 )  )
( or ( <= ( + X1 90 ) X13 )  ( <= ( + X13 1 ) X1 )  ( <= ( + Y1 44 ) Y13 )  ( <= ( + Y13 47 ) Y1 )  )
( or ( <= ( + X1 90 ) X14 )  ( <= ( + X14 67 ) X1 )  ( <= ( + Y1 44 ) Y14 )  ( <= ( + Y14 8 ) Y1 )  )
( or ( <= ( + X1 90 ) X15 )  ( <= ( + X15 24 ) X1 )  ( <= ( + Y1 44 ) Y15 )  ( <= ( + Y15 89 ) Y1 )  )
( or ( <= ( + X1 90 ) X16 )  ( <= ( + X16 53 ) X1 )  ( <= ( + Y1 44 ) Y16 )  ( <= ( + Y16 11 ) Y1 )  )
( or ( <= ( + X1 90 ) X17 )  ( <= ( + X17 83 ) X1 )  ( <= ( + Y1 44 ) Y17 )  ( <= ( + Y17 28 ) Y1 )  )
( or ( <= ( + X2 73 ) X3 )  ( <= ( + X3 64 ) X2 )  ( <= ( + Y2 93 ) Y3 )  ( <= ( + Y3 76 ) Y2 )  )
( or ( <= ( + X2 73 ) X4 )  ( <= ( + X4 68 ) X2 )  ( <= ( + Y2 93 ) Y4 )  ( <= ( + Y4 79 ) Y2 )  )
( or ( <= ( + X2 73 ) X5 )  ( <= ( + X5 21 ) X2 )  ( <= ( + Y2 93 ) Y5 )  ( <= ( + Y5 21 ) Y2 )  )
( or ( <= ( + X2 73 ) X6 )  ( <= ( + X6 11 ) X2 )  ( <= ( + Y2 93 ) Y6 )  ( <= ( + Y6 96 ) Y2 )  )
( or ( <= ( + X2 73 ) X7 )  ( <= ( + X7 76 ) X2 )  ( <= ( + Y2 93 ) Y7 )  ( <= ( + Y7 98 ) Y2 )  )
( or ( <= ( + X2 73 ) X8 )  ( <= ( + X8 16 ) X2 )  ( <= ( + Y2 93 ) Y8 )  ( <= ( + Y8 77 ) Y2 )  )
( or ( <= ( + X2 73 ) X9 )  ( <= ( + X9 71 ) X2 )  ( <= ( + Y2 93 ) Y9 )  ( <= ( + Y9 75 ) Y2 )  )
( or ( <= ( + X2 73 ) X10 )  ( <= ( + X10 82 ) X2 )  ( <= ( + Y2 93 ) Y10 )  ( <= ( + Y10 30 ) Y2 )  )
( or ( <= ( + X2 73 ) X11 )  ( <= ( + X11 54 ) X2 )  ( <= ( + Y2 93 ) Y11 )  ( <= ( + Y11 19 ) Y2 )  )
( or ( <= ( + X2 73 ) X12 )  ( <= ( + X12 41 ) X2 )  ( <= ( + Y2 93 ) Y12 )  ( <= ( + Y12 16 ) Y2 )  )
( or ( <= ( + X2 73 ) X13 )  ( <= ( + X13 1 ) X2 )  ( <= ( + Y2 93 ) Y13 )  ( <= ( + Y13 47 ) Y2 )  )
( or ( <= ( + X2 73 ) X14 )  ( <= ( + X14 67 ) X2 )  ( <= ( + Y2 93 ) Y14 )  ( <= ( + Y14 8 ) Y2 )  )
( or ( <= ( + X2 73 ) X15 )  ( <= ( + X15 24 ) X2 )  ( <= ( + Y2 93 ) Y15 )  ( <= ( + Y15 89 ) Y2 )  )
( or ( <= ( + X2 73 ) X16 )  ( <= ( + X16 53 ) X2 )  ( <= ( + Y2 93 ) Y16 )  ( <= ( + Y16 11 ) Y2 )  )
( or ( <= ( + X2 73 ) X17 )  ( <= ( + X17 83 ) X2 )  ( <= ( + Y2 93 ) Y17 )  ( <= ( + Y17 28 ) Y2 )  )
( or ( <= ( + X3 64 ) X4 )  ( <= ( + X4 68 ) X3 )  ( <= ( + Y3 76 ) Y4 )  ( <= ( + Y4 79 ) Y3 )  )
( or ( <= ( + X3 64 ) X5 )  ( <= ( + X5 21 ) X3 )  ( <= ( + Y3 76 ) Y5 )  ( <= ( + Y5 21 ) Y3 )  )
( or ( <= ( + X3 64 ) X6 )  ( <= ( + X6 11 ) X3 )  ( <= ( + Y3 76 ) Y6 )  ( <= ( + Y6 96 ) Y3 )  )
( or ( <= ( + X3 64 ) X7 )  ( <= ( + X7 76 ) X3 )  ( <= ( + Y3 76 ) Y7 )  ( <= ( + Y7 98 ) Y3 )  )
( or ( <= ( + X3 64 ) X8 )  ( <= ( + X8 16 ) X3 )  ( <= ( + Y3 76 ) Y8 )  ( <= ( + Y8 77 ) Y3 )  )
( or ( <= ( + X3 64 ) X9 )  ( <= ( + X9 71 ) X3 )  ( <= ( + Y3 76 ) Y9 )  ( <= ( + Y9 75 ) Y3 )  )
( or ( <= ( + X3 64 ) X10 )  ( <= ( + X10 82 ) X3 )  ( <= ( + Y3 76 ) Y10 )  ( <= ( + Y10 30 ) Y3 )  )
( or ( <= ( + X3 64 ) X11 )  ( <= ( + X11 54 ) X3 )  ( <= ( + Y3 76 ) Y11 )  ( <= ( + Y11 19 ) Y3 )  )
( or ( <= ( + X3 64 ) X12 )  ( <= ( + X12 41 ) X3 )  ( <= ( + Y3 76 ) Y12 )  ( <= ( + Y12 16 ) Y3 )  )
( or ( <= ( + X3 64 ) X13 )  ( <= ( + X13 1 ) X3 )  ( <= ( + Y3 76 ) Y13 )  ( <= ( + Y13 47 ) Y3 )  )
( or ( <= ( + X3 64 ) X14 )  ( <= ( + X14 67 ) X3 )  ( <= ( + Y3 76 ) Y14 )  ( <= ( + Y14 8 ) Y3 )  )
( or ( <= ( + X3 64 ) X15 )  ( <= ( + X15 24 ) X3 )  ( <= ( + Y3 76 ) Y15 )  ( <= ( + Y15 89 ) Y3 )  )
( or ( <= ( + X3 64 ) X16 )  ( <= ( + X16 53 ) X3 )  ( <= ( + Y3 76 ) Y16 )  ( <= ( + Y16 11 ) Y3 )  )
( or ( <= ( + X3 64 ) X17 )  ( <= ( + X17 83 ) X3 )  ( <= ( + Y3 76 ) Y17 )  ( <= ( + Y17 28 ) Y3 )  )
( or ( <= ( + X4 68 ) X5 )  ( <= ( + X5 21 ) X4 )  ( <= ( + Y4 79 ) Y5 )  ( <= ( + Y5 21 ) Y4 )  )
( or ( <= ( + X4 68 ) X6 )  ( <= ( + X6 11 ) X4 )  ( <= ( + Y4 79 ) Y6 )  ( <= ( + Y6 96 ) Y4 )  )
( or ( <= ( + X4 68 ) X7 )  ( <= ( + X7 76 ) X4 )  ( <= ( + Y4 79 ) Y7 )  ( <= ( + Y7 98 ) Y4 )  )
( or ( <= ( + X4 68 ) X8 )  ( <= ( + X8 16 ) X4 )  ( <= ( + Y4 79 ) Y8 )  ( <= ( + Y8 77 ) Y4 )  )
( or ( <= ( + X4 68 ) X9 )  ( <= ( + X9 71 ) X4 )  ( <= ( + Y4 79 ) Y9 )  ( <= ( + Y9 75 ) Y4 )  )
( or ( <= ( + X4 68 ) X10 )  ( <= ( + X10 82 ) X4 )  ( <= ( + Y4 79 ) Y10 )  ( <= ( + Y10 30 ) Y4 )  )
( or ( <= ( + X4 68 ) X11 )  ( <= ( + X11 54 ) X4 )  ( <= ( + Y4 79 ) Y11 )  ( <= ( + Y11 19 ) Y4 )  )
( or ( <= ( + X4 68 ) X12 )  ( <= ( + X12 41 ) X4 )  ( <= ( + Y4 79 ) Y12 )  ( <= ( + Y12 16 ) Y4 )  )
( or ( <= ( + X4 68 ) X13 )  ( <= ( + X13 1 ) X4 )  ( <= ( + Y4 79 ) Y13 )  ( <= ( + Y13 47 ) Y4 )  )
( or ( <= ( + X4 68 ) X14 )  ( <= ( + X14 67 ) X4 )  ( <= ( + Y4 79 ) Y14 )  ( <= ( + Y14 8 ) Y4 )  )
( or ( <= ( + X4 68 ) X15 )  ( <= ( + X15 24 ) X4 )  ( <= ( + Y4 79 ) Y15 )  ( <= ( + Y15 89 ) Y4 )  )
( or ( <= ( + X4 68 ) X16 )  ( <= ( + X16 53 ) X4 )  ( <= ( + Y4 79 ) Y16 )  ( <= ( + Y16 11 ) Y4 )  )
( or ( <= ( + X4 68 ) X17 )  ( <= ( + X17 83 ) X4 )  ( <= ( + Y4 79 ) Y17 )  ( <= ( + Y17 28 ) Y4 )  )
( or ( <= ( + X5 21 ) X6 )  ( <= ( + X6 11 ) X5 )  ( <= ( + Y5 21 ) Y6 )  ( <= ( + Y6 96 ) Y5 )  )
( or ( <= ( + X5 21 ) X7 )  ( <= ( + X7 76 ) X5 )  ( <= ( + Y5 21 ) Y7 )  ( <= ( + Y7 98 ) Y5 )  )
( or ( <= ( + X5 21 ) X8 )  ( <= ( + X8 16 ) X5 )  ( <= ( + Y5 21 ) Y8 )  ( <= ( + Y8 77 ) Y5 )  )
( or ( <= ( + X5 21 ) X9 )  ( <= ( + X9 71 ) X5 )  ( <= ( + Y5 21 ) Y9 )  ( <= ( + Y9 75 ) Y5 )  )
( or ( <= ( + X5 21 ) X10 )  ( <= ( + X10 82 ) X5 )  ( <= ( + Y5 21 ) Y10 )  ( <= ( + Y10 30 ) Y5 )  )
( or ( <= ( + X5 21 ) X11 )  ( <= ( + X11 54 ) X5 )  ( <= ( + Y5 21 ) Y11 )  ( <= ( + Y11 19 ) Y5 )  )
( or ( <= ( + X5 21 ) X12 )  ( <= ( + X12 41 ) X5 )  ( <= ( + Y5 21 ) Y12 )  ( <= ( + Y12 16 ) Y5 )  )
( or ( <= ( + X5 21 ) X13 )  ( <= ( + X13 1 ) X5 )  ( <= ( + Y5 21 ) Y13 )  ( <= ( + Y13 47 ) Y5 )  )
( or ( <= ( + X5 21 ) X14 )  ( <= ( + X14 67 ) X5 )  ( <= ( + Y5 21 ) Y14 )  ( <= ( + Y14 8 ) Y5 )  )
( or ( <= ( + X5 21 ) X15 )  ( <= ( + X15 24 ) X5 )  ( <= ( + Y5 21 ) Y15 )  ( <= ( + Y15 89 ) Y5 )  )
( or ( <= ( + X5 21 ) X16 )  ( <= ( + X16 53 ) X5 )  ( <= ( + Y5 21 ) Y16 )  ( <= ( + Y16 11 ) Y5 )  )
( or ( <= ( + X5 21 ) X17 )  ( <= ( + X17 83 ) X5 )  ( <= ( + Y5 21 ) Y17 )  ( <= ( + Y17 28 ) Y5 )  )
( or ( <= ( + X6 11 ) X7 )  ( <= ( + X7 76 ) X6 )  ( <= ( + Y6 96 ) Y7 )  ( <= ( + Y7 98 ) Y6 )  )
( or ( <= ( + X6 11 ) X8 )  ( <= ( + X8 16 ) X6 )  ( <= ( + Y6 96 ) Y8 )  ( <= ( + Y8 77 ) Y6 )  )
( or ( <= ( + X6 11 ) X9 )  ( <= ( + X9 71 ) X6 )  ( <= ( + Y6 96 ) Y9 )  ( <= ( + Y9 75 ) Y6 )  )
( or ( <= ( + X6 11 ) X10 )  ( <= ( + X10 82 ) X6 )  ( <= ( + Y6 96 ) Y10 )  ( <= ( + Y10 30 ) Y6 )  )
( or ( <= ( + X6 11 ) X11 )  ( <= ( + X11 54 ) X6 )  ( <= ( + Y6 96 ) Y11 )  ( <= ( + Y11 19 ) Y6 )  )
( or ( <= ( + X6 11 ) X12 )  ( <= ( + X12 41 ) X6 )  ( <= ( + Y6 96 ) Y12 )  ( <= ( + Y12 16 ) Y6 )  )
( or ( <= ( + X6 11 ) X13 )  ( <= ( + X13 1 ) X6 )  ( <= ( + Y6 96 ) Y13 )  ( <= ( + Y13 47 ) Y6 )  )
( or ( <= ( + X6 11 ) X14 )  ( <= ( + X14 67 ) X6 )  ( <= ( + Y6 96 ) Y14 )  ( <= ( + Y14 8 ) Y6 )  )
( or ( <= ( + X6 11 ) X15 )  ( <= ( + X15 24 ) X6 )  ( <= ( + Y6 96 ) Y15 )  ( <= ( + Y15 89 ) Y6 )  )
( or ( <= ( + X6 11 ) X16 )  ( <= ( + X16 53 ) X6 )  ( <= ( + Y6 96 ) Y16 )  ( <= ( + Y16 11 ) Y6 )  )
( or ( <= ( + X6 11 ) X17 )  ( <= ( + X17 83 ) X6 )  ( <= ( + Y6 96 ) Y17 )  ( <= ( + Y17 28 ) Y6 )  )
( or ( <= ( + X7 76 ) X8 )  ( <= ( + X8 16 ) X7 )  ( <= ( + Y7 98 ) Y8 )  ( <= ( + Y8 77 ) Y7 )  )
( or ( <= ( + X7 76 ) X9 )  ( <= ( + X9 71 ) X7 )  ( <= ( + Y7 98 ) Y9 )  ( <= ( + Y9 75 ) Y7 )  )
( or ( <= ( + X7 76 ) X10 )  ( <= ( + X10 82 ) X7 )  ( <= ( + Y7 98 ) Y10 )  ( <= ( + Y10 30 ) Y7 )  )
( or ( <= ( + X7 76 ) X11 )  ( <= ( + X11 54 ) X7 )  ( <= ( + Y7 98 ) Y11 )  ( <= ( + Y11 19 ) Y7 )  )
( or ( <= ( + X7 76 ) X12 )  ( <= ( + X12 41 ) X7 )  ( <= ( + Y7 98 ) Y12 )  ( <= ( + Y12 16 ) Y7 )  )
( or ( <= ( + X7 76 ) X13 )  ( <= ( + X13 1 ) X7 )  ( <= ( + Y7 98 ) Y13 )  ( <= ( + Y13 47 ) Y7 )  )
( or ( <= ( + X7 76 ) X14 )  ( <= ( + X14 67 ) X7 )  ( <= ( + Y7 98 ) Y14 )  ( <= ( + Y14 8 ) Y7 )  )
( or ( <= ( + X7 76 ) X15 )  ( <= ( + X15 24 ) X7 )  ( <= ( + Y7 98 ) Y15 )  ( <= ( + Y15 89 ) Y7 )  )
( or ( <= ( + X7 76 ) X16 )  ( <= ( + X16 53 ) X7 )  ( <= ( + Y7 98 ) Y16 )  ( <= ( + Y16 11 ) Y7 )  )
( or ( <= ( + X7 76 ) X17 )  ( <= ( + X17 83 ) X7 )  ( <= ( + Y7 98 ) Y17 )  ( <= ( + Y17 28 ) Y7 )  )
( or ( <= ( + X8 16 ) X9 )  ( <= ( + X9 71 ) X8 )  ( <= ( + Y8 77 ) Y9 )  ( <= ( + Y9 75 ) Y8 )  )
( or ( <= ( + X8 16 ) X10 )  ( <= ( + X10 82 ) X8 )  ( <= ( + Y8 77 ) Y10 )  ( <= ( + Y10 30 ) Y8 )  )
( or ( <= ( + X8 16 ) X11 )  ( <= ( + X11 54 ) X8 )  ( <= ( + Y8 77 ) Y11 )  ( <= ( + Y11 19 ) Y8 )  )
( or ( <= ( + X8 16 ) X12 )  ( <= ( + X12 41 ) X8 )  ( <= ( + Y8 77 ) Y12 )  ( <= ( + Y12 16 ) Y8 )  )
( or ( <= ( + X8 16 ) X13 )  ( <= ( + X13 1 ) X8 )  ( <= ( + Y8 77 ) Y13 )  ( <= ( + Y13 47 ) Y8 )  )
( or ( <= ( + X8 16 ) X14 )  ( <= ( + X14 67 ) X8 )  ( <= ( + Y8 77 ) Y14 )  ( <= ( + Y14 8 ) Y8 )  )
( or ( <= ( + X8 16 ) X15 )  ( <= ( + X15 24 ) X8 )  ( <= ( + Y8 77 ) Y15 )  ( <= ( + Y15 89 ) Y8 )  )
( or ( <= ( + X8 16 ) X16 )  ( <= ( + X16 53 ) X8 )  ( <= ( + Y8 77 ) Y16 )  ( <= ( + Y16 11 ) Y8 )  )
( or ( <= ( + X8 16 ) X17 )  ( <= ( + X17 83 ) X8 )  ( <= ( + Y8 77 ) Y17 )  ( <= ( + Y17 28 ) Y8 )  )
( or ( <= ( + X9 71 ) X10 )  ( <= ( + X10 82 ) X9 )  ( <= ( + Y9 75 ) Y10 )  ( <= ( + Y10 30 ) Y9 )  )
( or ( <= ( + X9 71 ) X11 )  ( <= ( + X11 54 ) X9 )  ( <= ( + Y9 75 ) Y11 )  ( <= ( + Y11 19 ) Y9 )  )
( or ( <= ( + X9 71 ) X12 )  ( <= ( + X12 41 ) X9 )  ( <= ( + Y9 75 ) Y12 )  ( <= ( + Y12 16 ) Y9 )  )
( or ( <= ( + X9 71 ) X13 )  ( <= ( + X13 1 ) X9 )  ( <= ( + Y9 75 ) Y13 )  ( <= ( + Y13 47 ) Y9 )  )
( or ( <= ( + X9 71 ) X14 )  ( <= ( + X14 67 ) X9 )  ( <= ( + Y9 75 ) Y14 )  ( <= ( + Y14 8 ) Y9 )  )
( or ( <= ( + X9 71 ) X15 )  ( <= ( + X15 24 ) X9 )  ( <= ( + Y9 75 ) Y15 )  ( <= ( + Y15 89 ) Y9 )  )
( or ( <= ( + X9 71 ) X16 )  ( <= ( + X16 53 ) X9 )  ( <= ( + Y9 75 ) Y16 )  ( <= ( + Y16 11 ) Y9 )  )
( or ( <= ( + X9 71 ) X17 )  ( <= ( + X17 83 ) X9 )  ( <= ( + Y9 75 ) Y17 )  ( <= ( + Y17 28 ) Y9 )  )
( or ( <= ( + X10 82 ) X11 )  ( <= ( + X11 54 ) X10 )  ( <= ( + Y10 30 ) Y11 )  ( <= ( + Y11 19 ) Y10 )  )
( or ( <= ( + X10 82 ) X12 )  ( <= ( + X12 41 ) X10 )  ( <= ( + Y10 30 ) Y12 )  ( <= ( + Y12 16 ) Y10 )  )
( or ( <= ( + X10 82 ) X13 )  ( <= ( + X13 1 ) X10 )  ( <= ( + Y10 30 ) Y13 )  ( <= ( + Y13 47 ) Y10 )  )
( or ( <= ( + X10 82 ) X14 )  ( <= ( + X14 67 ) X10 )  ( <= ( + Y10 30 ) Y14 )  ( <= ( + Y14 8 ) Y10 )  )
( or ( <= ( + X10 82 ) X15 )  ( <= ( + X15 24 ) X10 )  ( <= ( + Y10 30 ) Y15 )  ( <= ( + Y15 89 ) Y10 )  )
( or ( <= ( + X10 82 ) X16 )  ( <= ( + X16 53 ) X10 )  ( <= ( + Y10 30 ) Y16 )  ( <= ( + Y16 11 ) Y10 )  )
( or ( <= ( + X10 82 ) X17 )  ( <= ( + X17 83 ) X10 )  ( <= ( + Y10 30 ) Y17 )  ( <= ( + Y17 28 ) Y10 )  )
( or ( <= ( + X11 54 ) X12 )  ( <= ( + X12 41 ) X11 )  ( <= ( + Y11 19 ) Y12 )  ( <= ( + Y12 16 ) Y11 )  )
( or ( <= ( + X11 54 ) X13 )  ( <= ( + X13 1 ) X11 )  ( <= ( + Y11 19 ) Y13 )  ( <= ( + Y13 47 ) Y11 )  )
( or ( <= ( + X11 54 ) X14 )  ( <= ( + X14 67 ) X11 )  ( <= ( + Y11 19 ) Y14 )  ( <= ( + Y14 8 ) Y11 )  )
( or ( <= ( + X11 54 ) X15 )  ( <= ( + X15 24 ) X11 )  ( <= ( + Y11 19 ) Y15 )  ( <= ( + Y15 89 ) Y11 )  )
( or ( <= ( + X11 54 ) X16 )  ( <= ( + X16 53 ) X11 )  ( <= ( + Y11 19 ) Y16 )  ( <= ( + Y16 11 ) Y11 )  )
( or ( <= ( + X11 54 ) X17 )  ( <= ( + X17 83 ) X11 )  ( <= ( + Y11 19 ) Y17 )  ( <= ( + Y17 28 ) Y11 )  )
( or ( <= ( + X12 41 ) X13 )  ( <= ( + X13 1 ) X12 )  ( <= ( + Y12 16 ) Y13 )  ( <= ( + Y13 47 ) Y12 )  )
( or ( <= ( + X12 41 ) X14 )  ( <= ( + X14 67 ) X12 )  ( <= ( + Y12 16 ) Y14 )  ( <= ( + Y14 8 ) Y12 )  )
( or ( <= ( + X12 41 ) X15 )  ( <= ( + X15 24 ) X12 )  ( <= ( + Y12 16 ) Y15 )  ( <= ( + Y15 89 ) Y12 )  )
( or ( <= ( + X12 41 ) X16 )  ( <= ( + X16 53 ) X12 )  ( <= ( + Y12 16 ) Y16 )  ( <= ( + Y16 11 ) Y12 )  )
( or ( <= ( + X12 41 ) X17 )  ( <= ( + X17 83 ) X12 )  ( <= ( + Y12 16 ) Y17 )  ( <= ( + Y17 28 ) Y12 )  )
( or ( <= ( + X13 1 ) X14 )  ( <= ( + X14 67 ) X13 )  ( <= ( + Y13 47 ) Y14 )  ( <= ( + Y14 8 ) Y13 )  )
( or ( <= ( + X13 1 ) X15 )  ( <= ( + X15 24 ) X13 )  ( <= ( + Y13 47 ) Y15 )  ( <= ( + Y15 89 ) Y13 )  )
( or ( <= ( + X13 1 ) X16 )  ( <= ( + X16 53 ) X13 )  ( <= ( + Y13 47 ) Y16 )  ( <= ( + Y16 11 ) Y13 )  )
( or ( <= ( + X13 1 ) X17 )  ( <= ( + X17 83 ) X13 )  ( <= ( + Y13 47 ) Y17 )  ( <= ( + Y17 28 ) Y13 )  )
( or ( <= ( + X14 67 ) X15 )  ( <= ( + X15 24 ) X14 )  ( <= ( + Y14 8 ) Y15 )  ( <= ( + Y15 89 ) Y14 )  )
( or ( <= ( + X14 67 ) X16 )  ( <= ( + X16 53 ) X14 )  ( <= ( + Y14 8 ) Y16 )  ( <= ( + Y16 11 ) Y14 )  )
( or ( <= ( + X14 67 ) X17 )  ( <= ( + X17 83 ) X14 )  ( <= ( + Y14 8 ) Y17 )  ( <= ( + Y17 28 ) Y14 )  )
( or ( <= ( + X15 24 ) X16 )  ( <= ( + X16 53 ) X15 )  ( <= ( + Y15 89 ) Y16 )  ( <= ( + Y16 11 ) Y15 )  )
( or ( <= ( + X15 24 ) X17 )  ( <= ( + X17 83 ) X15 )  ( <= ( + Y15 89 ) Y17 )  ( <= ( + Y17 28 ) Y15 )  )
( or ( <= ( + X16 53 ) X17 )  ( <= ( + X17 83 ) X16 )  ( <= ( + Y16 11 ) Y17 )  ( <= ( + Y17 28 ) Y16 )  )
( >= X0 0)
( <= ( + X0 66) Z)
( >= Y0 0)
( <= ( + Y0 45 ) 100)
( >= X1 0)
( <= ( + X1 90) Z)
( >= Y1 0)
( <= ( + Y1 44 ) 100)
( >= X2 0)
( <= ( + X2 73) Z)
( >= Y2 0)
( <= ( + Y2 93 ) 100)
( >= X3 0)
( <= ( + X3 64) Z)
( >= Y3 0)
( <= ( + Y3 76 ) 100)
( >= X4 0)
( <= ( + X4 68) Z)
( >= Y4 0)
( <= ( + Y4 79 ) 100)
( >= X5 0)
( <= ( + X5 21) Z)
( >= Y5 0)
( <= ( + Y5 21 ) 100)
( >= X6 0)
( <= ( + X6 11) Z)
( >= Y6 0)
( <= ( + Y6 96 ) 100)
( >= X7 0)
( <= ( + X7 76) Z)
( >= Y7 0)
( <= ( + Y7 98 ) 100)
( >= X8 0)
( <= ( + X8 16) Z)
( >= Y8 0)
( <= ( + Y8 77 ) 100)
( >= X9 0)
( <= ( + X9 71) Z)
( >= Y9 0)
( <= ( + Y9 75 ) 100)
( >= X10 0)
( <= ( + X10 82) Z)
( >= Y10 0)
( <= ( + Y10 30 ) 100)
( >= X11 0)
( <= ( + X11 54) Z)
( >= Y11 0)
( <= ( + Y11 19 ) 100)
( >= X12 0)
( <= ( + X12 41) Z)
( >= Y12 0)
( <= ( + Y12 16 ) 100)
( >= X13 0)
( <= ( + X13 1) Z)
( >= Y13 0)
( <= ( + Y13 47 ) 100)
( >= X14 0)
( <= ( + X14 67) Z)
( >= Y14 0)
( <= ( + Y14 8 ) 100)
( >= X15 0)
( <= ( + X15 24) Z)
( >= Y15 0)
( <= ( + Y15 89 ) 100)
( >= X16 0)
( <= ( + X16 53) Z)
( >= Y16 0)
( <= ( + Y16 11 ) 100)
( >= X17 0)
( <= ( + X17 83) Z)
( >= Y17 0)
( <= ( + Y17 28 ) 100)
) )
(minimize Z)
(check-sat)
